NAME : set7.4150641.tour
COMMENT : Length = 4150641
TYPE : TOUR
DIMENSION : 101
TOUR_SECTION
1
50
23
93
70
97
96
99
54
65
80
44
3
66
26
85
73
21
78
74
37
46
27
45
53
24
51
5
98
13
81
94
7
15
34
29
71
57
8
35
18
75
48
82
9
14
4
11
49
16
40
17
30
92
39
32
68
28
61
25
84
91
88
47
38
69
12
55
56
31
101
63
20
19
64
41
79
87
22
59
77
67
2
72
83
10
90
100
33
89
36
60
52
43
42
86
6
95
58
76
62
-1
EOF
